1004          0             4    1  
3             0             3    0  
100003        0             3    100
2002          0             2    2  
4004          0             4    4  
1             0             1    0  
0             0             0    0  
1003          0             3    1  
100           0             100  0  
2003          0             3    2  
100100        0             100  100
2             0             2    0  
100004        0             4    100
2004          0             4    2  
1001          0             1    1  
3004          0             4    3  
100002        0             2    100
1002          0             2    1  
4             0             4    0  
100001        0             1    100
3003          0             3    3  
